data/solutions/planning/wellformed/moderate/weighting/wellformed_moderate_instance96_cplex.sol
Elapsed time: 6.28
Nodes explored: 45426
Nodes left: 0
Relative gap: 0.0
Upper bound: 573600.0
Lower bound: 573600
C[0]=9105.0
C[1]=9105.0
C[2]=9104.0
C[3]=9104.0
C[4]=9104.0
C[5]=9104.0
y[0]=5
y[1]=4
y[2]=1
y[3]=0
y[4]=1
y[5]=0
y[6]=0
y[7]=2
y[8]=0
y[9]=3
y[10]=1
y[11]=2
y[12]=0
y[13]=1
y[14]=2
y[15]=3
y[16]=5
y[17]=4
y[18]=1
y[19]=2
y[20]=5
y[21]=3
y[22]=2
y[23]=3
y[24]=0
y[25]=0
y[26]=5
y[27]=5
y[28]=1
y[29]=2
y[30]=3
y[31]=5
y[32]=2
y[33]=0
y[34]=4
y[35]=5
y[36]=4
y[37]=2
y[38]=4
y[39]=3
y[40]=3
y[41]=5
y[42]=0
y[43]=5
y[44]=4
y[45]=1
y[46]=5
y[47]=0
y[48]=5
y[49]=3
