data/solutions/planning/wellformed/moderate/weighting/wellformed_moderate_instance96_cplex.log

Log started (V12.6.3.0) Fri Mar  2 13:38:38 2018

New value for default parallel thread count: 1

Problem '/tmp/tmp1Qqyi_.pyomo.lp' read.
Read time = 0.00 sec. (0.02 ticks)

Problem name         : /tmp/tmp1Qqyi_.pyomo.lp
Objective sense      : Minimize
Variables            :     307  [Nneg: 7,  Binary: 300]
Objective nonzeros   :       6
Linear constraints   :      62  [Less: 5,  Equal: 57]
  Nonzeros           :     617
  RHS nonzeros       :      51

Variables            : Min LB: 0.000000         Max UB: 1.000000       
Objective nonzeros   : Min   : 1.000000         Max   : 32.00000       
Linear constraints   :
  Nonzeros           : Min   : 1.000000         Max   : 1984.000       
  RHS nonzeros       : Min   : 1.000000         Max   : 1.000000       
Found incumbent of value 1748032.000000 after 0.00 sec. (0.03 ticks)
Tried aggregator 2 times.
MIP Presolve eliminated 1 rows and 1 columns.
Aggregator did 2 substitutions.
Reduced MIP has 59 rows, 304 columns, and 612 nonzeros.
Reduced MIP has 300 binaries, 0 generals, 0 SOSs, and 0 indicators.
Presolve time = 0.00 sec. (0.64 ticks)
Probing fixed 0 vars, tightened 15 bounds.
Probing time = 0.00 sec. (0.93 ticks)
Tried aggregator 1 time.
Reduced MIP has 59 rows, 304 columns, and 612 nonzeros.
Reduced MIP has 300 binaries, 4 generals, 0 SOSs, and 0 indicators.
Presolve time = 0.00 sec. (0.42 ticks)
Probing time = 0.00 sec. (0.42 ticks)
Clique table members: 50.
MIP emphasis: balance optimality and feasibility.
MIP search method: dynamic search.
Parallel mode: none, using 1 thread.
Root relaxation solution time = 0.00 sec. (0.64 ticks)

        Nodes                                         Cuts/
   Node  Left     Objective  IInf  Best Integer    Best Bound    ItCnt     Gap

*     0+    0                      1748032.0000        0.0000           100.00%
      0     0   573573.0000    13  1748032.0000   573573.0000       70   67.19%
      0     0   573573.0000    20  1748032.0000       Cuts: 8       81   67.19%
      0     0   573573.0000    16  1748032.0000       Cuts: 4       88   67.19%
      0     0   573573.0000    20  1748032.0000     Covers: 2       91   67.19%
*     0+    0                       616124.0000   573573.0000             6.91%
      0     2   573573.0000    12   616124.0000   573573.0000       91    6.91%
Elapsed time = 0.02 sec. (13.83 ticks, tree = 0.01 MB, solutions = 2)
*    40+   28                       590416.0000   573573.0000             2.85%
*    90+   66                       588271.0000   573573.0000             2.50%
*   110+   79                       587514.0000   573573.0000             2.37%
*   210+  149                       583337.0000   573573.0000             1.67%
*   320+  244                       582497.0000   573573.0000             1.53%
*   344   260      integral     0   582083.0000   573573.0000      907    1.46%
*   370+  253                       576901.0000   573573.0000             0.58%
*   370+  253                       576637.0000   573573.0000             0.53%
*   440+  312                       576355.0000   573573.0000             0.48%
*   540+  395                       576320.0000   573573.0000             0.48%
*   651+  469                       575899.0000   573573.0000             0.40%
*   653+  314                       575622.0000   573573.0000             0.36%
*   653+  209                       575574.0000   573573.0000             0.35%
    795   275   573600.0000    10   575574.0000   573600.0000     2248    0.34%
    796   276   573600.0000    10   575574.0000   573600.0000     2249    0.34%
    797   277   573600.0000    10   575574.0000   573600.0000     2251    0.34%
    798   277   573600.0000    10   575574.0000   573600.0000     2252    0.34%
    799   277   573600.0000    10   575574.0000   573600.0000     2253    0.34%
    800   276   573600.0000    10   575574.0000   573600.0000     2254    0.34%
    801   277   573600.0000     9   575574.0000   573600.0000     2255    0.34%
    802   277   573600.0000     9   575574.0000   573600.0000     2258    0.34%
    803   275    infeasible         575574.0000   573600.0000     2258    0.34%
*   933+  273                       575277.0000   573600.0000             0.29%
*  1233+  435                       575237.0000   573600.0000             0.28%
*  1253+  454                       575210.0000   573600.0000             0.28%
*  1513+  634                       575183.0000   573600.0000             0.28%
*  1613+  696                       575166.0000   573600.0000             0.27%
*  1613+  696                       575165.0000   573600.0000             0.27%
*  1728   766      integral     0   575112.0000   573600.0000     3987    0.26%
*  1853+  835                       575097.0000   573600.0000             0.26%
*  2053+  998                       575071.0000   573600.0000             0.26%
*  2153+ 1055                       575029.0000   573600.0000             0.25%
*  2253+ 1048                       574901.0000   573600.0000             0.23%
*  2611  1287      integral     0   574852.0000   573600.0000     5527    0.22%
*  2813+ 1425                       574766.0000   573600.0000             0.20%
*  2823+ 1435                       574762.0000   573600.0000             0.20%
*  2923+ 1418                       574665.0000   573600.0000             0.19%
*  3353+ 1435                       574544.0000   573600.0000             0.16%
*  3393+ 1443                       574538.0000   573600.0000             0.16%
*  3653+ 1515                       574524.0000   573600.0000             0.16%
   3808  1574   573600.0000     7   574524.0000   573600.0000     7900    0.16%
Elapsed time = 1.30 sec. (967.74 ticks, tree = 0.68 MB, solutions = 33)
*  4375  1683      integral     0   574502.0000   573600.0000     9703    0.16%
*  5733+ 1968                       574484.0000   573600.0000             0.15%
*  5741  1929      integral     0   574476.0000   573600.0000    12942    0.15%
*  6133+ 1916                       574369.0000   573600.0000             0.13%
*  8297  2741      integral     0   574342.0000   573600.0000    18401    0.13%
  10593  3392   574308.5000     6   574342.0000   573600.0000    23393    0.13%
  10594  3393   573600.0000     7   574342.0000   573600.0000    23397    0.13%
  10595  3392        cutoff         574342.0000   573600.0000    23404    0.13%
  10596  3392   573600.0000     7   574342.0000   573600.0000    23405    0.13%
  10597  3393   573600.0000     7   574342.0000   573600.0000    23406    0.13%
  10598  3394   573600.0000     7   574342.0000   573600.0000    23407    0.13%
  10599  3395   573600.0000     7   574342.0000   573600.0000    23408    0.13%
  10600  3394        cutoff         574342.0000   573600.0000    23413    0.13%
  10601  3394   573771.0000     7   574342.0000   573600.0000    23419    0.13%
  10602  3393        cutoff         574342.0000   573600.0000    23421    0.13%
Elapsed time = 2.54 sec. (1990.43 ticks, tree = 1.55 MB, solutions = 38)
  20963  5762   573600.0000     8   574342.0000   573600.0000    44997    0.13%
  20964  5761    infeasible         574342.0000   573600.0000    44997    0.13%
  20965  5762   573600.0000     8   574342.0000   573600.0000    44998    0.13%
  20966  5763   573600.0000     8   574342.0000   573600.0000    44999    0.13%
  20967  5764   573600.0000     8   574342.0000   573600.0000    45000    0.13%
  20968  5765   573600.0000     8   574342.0000   573600.0000    45001    0.13%
  20969  5766   573600.0000     8   574342.0000   573600.0000    45002    0.13%
  20970  5767   573600.0000     8   574342.0000   573600.0000    45004    0.13%
  20971  5767   574311.0000     8   574342.0000   573600.0000    45011    0.13%
  20972  5766    infeasible         574342.0000   573600.0000    45011    0.13%
Elapsed time = 3.64 sec. (2944.74 ticks, tree = 2.69 MB, solutions = 38)
  31298  7102   574163.5000     8   574342.0000   573600.0000    65577    0.13%
  31299  7101        cutoff         574342.0000   573600.0000    65579    0.13%
  31300  7102   573600.0000     6   574342.0000   573600.0000    65580    0.13%
  31301  7102   573864.0000     6   574342.0000   573600.0000    65585    0.13%
  31302  7102   573864.0000     6   574342.0000   573600.0000    65586    0.13%
  31303  7101        cutoff         574342.0000   573600.0000    65589    0.13%
  31304  7102   573600.0000     6   574342.0000   573600.0000    65591    0.13%
  31305  7103   573600.0000     6   574342.0000   573600.0000    65592    0.13%
  31306  7104   573600.0000     6   574342.0000   573600.0000    65593    0.13%
  31307  7105   573600.0000     6   574342.0000   573600.0000    65594    0.13%
Elapsed time = 4.74 sec. (3899.59 ticks, tree = 3.29 MB, solutions = 38)
  41032  7933   574149.0000     9   574342.0000   573600.0000    87073    0.13%
  41033  7932    infeasible         574342.0000   573600.0000    87073    0.13%
  41034  7931    infeasible         574342.0000   573600.0000    87073    0.13%
  41035  7931   573636.0000    10   574342.0000   573600.0000    87077    0.13%
  41036  7931   573636.0000    10   574342.0000   573600.0000    87078    0.13%
  41037  7930    infeasible         574342.0000   573600.0000    87078    0.13%
  41038  7931   573600.0000     8   574342.0000   573600.0000    87080    0.13%
  41039  7932   573600.0000     8   574342.0000   573600.0000    87081    0.13%
  41040  7933   573600.0000     8   574342.0000   573600.0000    87083    0.13%
  41041  7934   573600.0000     8   574342.0000   573600.0000    87084    0.13%
Elapsed time = 5.83 sec. (4853.93 ticks, tree = 3.67 MB, solutions = 38)
* 45425     1      integral     0   573600.0000   573600.0000    95966    0.00%

Root node processing (before b&c):
  Real time             =    0.02 sec. (13.92 ticks)
Sequential b&c:
  Real time             =    6.25 sec. (5218.87 ticks)
                          ------------
Total (root+branch&cut) =    6.27 sec. (5232.78 ticks)

Solution pool: 39 solutions saved.

MIP - Integer optimal solution:  Objective =  5.7360000000e+05
Solution time =    6.27 sec.  Iterations = 95966  Nodes = 45426
Deterministic time = 5232.79 ticks  (834.93 ticks/sec)


Incumbent solution written to file '/tmp/tmpwqfO8O.cplex.sol'.
